9,1,11,1,5,2,3,1,4,4,2,2,14,4,12,2,6,4,15,3,13,5,10,4,7,3,1,4,8,5;14,1,2,1,4,2,5,3,13,3,3,2,9,4,7,1,12,3,1,1,8,3,15,5,10,5,11,5,6,5;5,1,12,1,13,2,4,3,8,1,15,2,14,2,6,3,3,3,11,4,10,1,9,5,1,2,2,5,7,4;6,1,13,1,4,1,9,2,15,1,5,4,8,2,11,3,14,5,2,4,10,3,3,5,1,3,12,5,7,5;6,2,11,2,9,3,4,5,14,3,2,3,3,4,15,4,13,4,10,2,7,2,12,4,5,5,1,5,8,4;
